
Gurobi 10.0.0 (linux64) logging started Sat Nov 19 21:44:20 2022

Set parameter LogFile to value "../results/k04_n100_d015/k04_n144_d025_queen12_12_A-MILO_log.txt"
Gurobi Optimizer version 10.0.0 build v10.0.0rc2 (linux64)

CPU model: Intel(R) Xeon(R) CPU E5-2630 v4 @ 2.20GHz, instruction set [SSE2|AVX|AVX2]
Thread count: 20 physical cores, 40 logical processors, using up to 10 threads

Optimize a model with 31296 rows, 3172 columns and 94032 nonzeros
Model fingerprint: 0x8c8ba0b4
Coefficient statistics:
  Matrix range     [1e+00, 1e+00]
  Objective range  [1e+00, 1e+00]
  Bounds range     [1e+00, 1e+00]
  RHS range        [1e+00, 2e+00]
Presolve removed 298 rows and 37 columns
Presolve time: 0.04s
Presolved: 30998 rows, 3135 columns, 93038 nonzeros

Concurrent LP optimizer: primal simplex, dual simplex, and barrier
Showing barrier log only...

Ordering time: 0.00s

Barrier statistics:
 AA' NZ     : 3.519e+03
 Factor NZ  : 6.678e+03 (roughly 3 MB of memory)
 Factor Ops : 1.514e+05 (less than 1 second per iteration)
 Threads    : 1

                  Objective                Residual
Iter       Primal          Dual         Primal    Dual     Compl     Time
   0   9.81610944e+03  3.30000000e+01  5.58e+00 0.00e+00  2.37e+00     0s
   1   3.77682159e+03  1.51519050e+03  6.79e-01 2.15e-01  3.78e-01     0s
   2   2.77434229e+03  2.57461799e+03  3.79e-02 7.97e-03  2.96e-02     0s

Barrier performed 2 iterations in 0.08 seconds (0.07 work units)
Barrier solve interrupted - model solved by another algorithm


Solved with dual simplex
Iteration    Objective       Primal Inf.    Dual Inf.      Time
    1217    2.5960000e+03   0.000000e+00   0.000000e+00      0s

Use crossover to convert LP symmetric solution to basic solution...
Crossover log...

     286 PPushes remaining with PInf 0.0000000e+00                 0s
       0 PPushes remaining with PInf 0.0000000e+00                 0s

  Push phase complete: Pinf 0.0000000e+00, Dinf 0.0000000e+00      0s

Iteration    Objective       Primal Inf.    Dual Inf.      Time
    1506    2.5960000e+03   0.000000e+00   0.000000e+00      0s

Solved in 1506 iterations and 0.13 seconds (0.10 work units)
Optimal objective  2.596000000e+03
